
Gurobi 8.0.1 (linux64, Python) logging started Wed Nov  6 17:04:51 2019

Academic license - for non-commercial use only

Gurobi 8.0.1 (linux64, Python) logging started Wed Nov  6 17:05:01 2019

Academic license - for non-commercial use only

Gurobi 8.0.1 (linux64, Python) logging started Wed Nov  6 17:05:09 2019

Academic license - for non-commercial use only

Gurobi 8.0.1 (linux64, Python) logging started Wed Nov  6 17:05:19 2019

Academic license - for non-commercial use only

Gurobi 8.0.1 (linux64, Python) logging started Wed Nov  6 17:07:17 2019

Academic license - for non-commercial use only

Gurobi 8.0.1 (linux64, Python) logging started Wed Nov  6 17:07:27 2019

Academic license - for non-commercial use only

Gurobi 8.0.1 (linux64, Python) logging started Wed Nov  6 17:07:38 2019

Academic license - for non-commercial use only

Gurobi 8.0.1 (linux64, Python) logging started Wed Nov  6 17:08:53 2019

Academic license - for non-commercial use only

Gurobi 8.0.1 (linux64, Python) logging started Wed Nov  6 17:09:03 2019

Academic license - for non-commercial use only

Gurobi 8.0.1 (linux64, Python) logging started Wed Nov  6 17:09:14 2019

Academic license - for non-commercial use only

Gurobi 8.0.1 (linux64, Python) logging started Wed Nov  6 17:19:32 2019

Academic license - for non-commercial use only

Gurobi 8.0.1 (linux64, Python) logging started Wed Nov  6 17:40:34 2019

Academic license - for non-commercial use only

Gurobi 8.0.1 (linux64, Python) logging started Wed Nov  6 17:40:38 2019

Academic license - for non-commercial use only

Gurobi 8.0.1 (linux64, Python) logging started Wed Nov  6 17:41:39 2019

Academic license - for non-commercial use only

Gurobi 8.0.1 (linux64, Python) logging started Wed Nov  6 17:41:43 2019

Academic license - for non-commercial use only

Gurobi 8.0.1 (linux64, Python) logging started Wed Nov  6 17:43:46 2019

Academic license - for non-commercial use only

Gurobi 8.0.1 (linux64, Python) logging started Sun Nov 10 19:01:31 2019

Academic license - for non-commercial use only
